Version identifier: 22.1.0.0 | 2022-03-09 | 1a383f8ce
CPXPARAM_Threads                                 1
CPXPARAM_MIP_Strategy_VariableSelect             3
CPXPARAM_TimeLimit                               596.078122646
Tried aggregator 1 time.
MIP Presolve eliminated 13 rows and 0 columns.
MIP Presolve modified 4 coefficients.
Reduced MIP has 1794 rows, 7425 columns, and 91017 nonzeros.
Reduced MIP has 7425 binaries, 0 generals, 0 SOSs, and 0 indicators.
Presolve time = 0.06 sec. (39.48 ticks)
Probing time = 0.01 sec. (6.74 ticks)
Tried aggregator 1 time.
Detecting symmetries...
Reduced MIP has 1794 rows, 7425 columns, and 91017 nonzeros.
Reduced MIP has 7425 binaries, 0 generals, 0 SOSs, and 0 indicators.
Presolve time = 0.07 sec. (49.26 ticks)
Probing time = 0.01 sec. (6.74 ticks)
Clique table members: 596.
MIP emphasis: balance optimality and feasibility.
MIP search method: dynamic search.
Parallel mode: none, using 1 thread.
Root relaxation solution time = 1.04 sec. (1000.34 ticks)

        Nodes                                         Cuts/
   Node  Left     Objective  IInf  Best Integer    Best Bound    ItCnt     Gap

      0     0        0.0000  1070                      0.0000     4008         
*     0+    0                            0.0000        0.0000             0.00%
      0     0        cutoff              0.0000        0.0000     4008    0.00%
Elapsed time = 6.37 sec. (7021.85 ticks, tree = 0.01 MB, solutions = 1)

Root node processing (before b&c):
  Real time             =    6.37 sec. (7022.07 ticks)
Sequential b&c:
  Real time             =    0.00 sec. (0.00 ticks)
                          ------------
Total (root+branch&cut) =    6.37 sec. (7022.07 ticks)
Version identifier: 22.1.0.0 | 2022-03-09 | 1a383f8ce
CPXPARAM_Threads                                 1
CPXPARAM_MIP_Strategy_VariableSelect             3
CPXPARAM_TimeLimit                               589.63517913600003
Tried aggregator 1 time.
MIP Presolve eliminated 13 rows and 0 columns.
MIP Presolve modified 4 coefficients.
Reduced MIP has 1806 rows, 7475 columns, and 91635 nonzeros.
Reduced MIP has 7475 binaries, 0 generals, 0 SOSs, and 0 indicators.
Presolve time = 0.05 sec. (39.76 ticks)
Probing time = 0.01 sec. (6.78 ticks)
Tried aggregator 1 time.
Detecting symmetries...
Reduced MIP has 1806 rows, 7475 columns, and 91635 nonzeros.
Reduced MIP has 7475 binaries, 0 generals, 0 SOSs, and 0 indicators.
Presolve time = 0.06 sec. (49.61 ticks)
Probing time = 0.01 sec. (6.78 ticks)
Clique table members: 600.
MIP emphasis: balance optimality and feasibility.
MIP search method: dynamic search.
Parallel mode: none, using 1 thread.
Root relaxation solution time = 0.77 sec. (800.82 ticks)

        Nodes                                         Cuts/
   Node  Left     Objective  IInf  Best Integer    Best Bound    ItCnt     Gap

      0     0        0.0000  1100                      0.0000     3372         
*     0+    0                            0.0000        0.0000             0.00%
      0     0        cutoff              0.0000        0.0000     3372    0.00%
Elapsed time = 5.91 sec. (6457.82 ticks, tree = 0.01 MB, solutions = 1)

Root node processing (before b&c):
  Real time             =    5.91 sec. (6458.04 ticks)
Sequential b&c:
  Real time             =    0.00 sec. (0.00 ticks)
                          ------------
Total (root+branch&cut) =    5.91 sec. (6458.04 ticks)
Version identifier: 22.1.0.0 | 2022-03-09 | 1a383f8ce
CPXPARAM_Threads                                 1
CPXPARAM_MIP_Strategy_VariableSelect             3
CPXPARAM_TimeLimit                               583.68055309299996
Tried aggregator 1 time.
MIP Presolve eliminated 13 rows and 0 columns.
MIP Presolve modified 4 coefficients.
Reduced MIP has 1812 rows, 7500 columns, and 91944 nonzeros.
Reduced MIP has 7500 binaries, 0 generals, 0 SOSs, and 0 indicators.
Presolve time = 0.05 sec. (39.93 ticks)
Probing time = 0.01 sec. (6.80 ticks)
Tried aggregator 1 time.
Detecting symmetries...
Reduced MIP has 1812 rows, 7500 columns, and 91944 nonzeros.
Reduced MIP has 7500 binaries, 0 generals, 0 SOSs, and 0 indicators.
Presolve time = 0.06 sec. (49.82 ticks)
Probing time = 0.01 sec. (6.80 ticks)
Clique table members: 602.
MIP emphasis: balance optimality and feasibility.
MIP search method: dynamic search.
Parallel mode: none, using 1 thread.
Root relaxation solution time = 0.91 sec. (957.78 ticks)

        Nodes                                         Cuts/
   Node  Left     Objective  IInf  Best Integer    Best Bound    ItCnt     Gap

      0     0        0.0000  1117                      0.0000     3795         
*     0+    0                            0.0000        0.0000             0.00%
      0     0        cutoff              0.0000        0.0000     3795    0.00%
Elapsed time = 6.64 sec. (7524.39 ticks, tree = 0.01 MB, solutions = 1)

Root node processing (before b&c):
  Real time             =    6.64 sec. (7524.62 ticks)
Sequential b&c:
  Real time             =    0.00 sec. (0.00 ticks)
                          ------------
Total (root+branch&cut) =    6.64 sec. (7524.62 ticks)
Primal:	300
Dual:	300
Status:	Optimal
Time:	19.0936
Sequence:
	20
	9
	14
	13
	14
	9
	12
	10
	2
	5
	13
	21
	9
	21
	13
	14
	2
	10
	16
	13
	15
	23
	10
	19
	11
	16
	6
	2
	14
	13
	5
	9
	21
	13
	10
	8
	6
	12
	2
	14
	13
	10
	8
	7
	16
	23
	18
	16
	24
	14
	9
	20
	16
	21
	22
	23
	7
	16
	15
	23
	10
	13
	17
	16
	6
	16
	11
	24
	21
	23
	17
	24
	20
	3
	7
	12
	20
	9
	21
	16
	20
	9
	14
	24
	21
	22
	13
	14
	9
	21
	23
	10
	3
	10
	12
	6
	9
	16
	20
	19
	11
	13
	14
	22
	21
	23
	6
	8
	14
	13
	24
	1
	16
	21
	13
	11
	13
	21
	16
	1
	13
	11
	12
	21
	2
	6
	13
	14
	8
	6
	24
	1
	12
	21
	23
	11
	13
	14
	19
	11
	24
	20
	16
	15
	24
	20
	23
	15
	16
	24
	10
	22
	21
	12
	10
	2
	11
	16
	4
	24
	11
	16
	21
	22
	20
	13
	21
	8
	7
	13
	6
	8
	14
	13
	10
	9
	14
	16
	24
	15
	13
	6
	19
	11
	16
	13
	21
	22
	6
	19
	11
	19
	11
	24
	14
	13
	17
	24
	16
	6
	22
	5
	13
	19
	11
	24
	14
	2
	16
	10
	9
	21
	13
	17
	13
	10
	19
	11
	16
	6
	16
	2
	23
	14
	2
	16
	10
	24
	17
	13
	21
	0
	11
	19
	10
	16
	2
	10
	16
	13
	17
	24
	14
	23
	15
	23
	7
	19
	11
	16
	6
	24
	17
	13
	14
	24
	15
	13
	10
	19
	11
	19
	11
	16
	6
	24
	15
	13
	14
	24
	9
	14
	16
	6
	2
	10
	12
	21
	22
	10
	13
	15
	16
	10
	13
	17
	13
	21
	13
	11
	16
	13
	14
	9
	7
	16
	11
	19
	10
	24
